proyfinal/src/viki/013/experimentInOfficeAgust.take6.output/6aac0c61-8b00-4e57-9c4d-186073707d4e.als.out
Reading from standard input... Use '--help' for help.
============================[ Problem Statistics ]=============================
|                                                                             |
|  Number of variables:         87638                                         |
|  Number of clauses:          161767                                         |
|  Parse time:                   0.03 s                                       |
|                                                                             |
============================[ Search Statistics ]==============================
| Conflicts |          ORIGINAL         |          LEARNT          | Progress |
|           |    Vars  Clauses Literals |    Limit  Clauses Lit/Cl |          |
===============================================================================
|       100 |   63060   107664   269258 |    39476      100     41 | 28.045 % |
|       250 |   63060   107664   269258 |    43424      250     82 | 28.045 % |
|       475 |   63060   107664   269258 |    47766      475    112 | 28.045 % |
|       812 |   63060   107664   269258 |    52543      812    121 | 28.045 % |
|      1318 |   63060   107664   269258 |    57797     1318    164 | 28.045 % |
|      2077 |   44005    51046   130168 |    63577     1937    130 | 49.788 % |
|      3216 |   43993    51038   130145 |    69935     3066     94 | 49.801 % |
===============================================================================
restarts              : 22
conflicts             : 4274           (8766 /sec)
decisions             : 14578          (0.00 % random) (29901 /sec)
propagations          : 5170249        (10604791 /sec)
conflict literals     : 334820         (31.88 % deleted)
Memory used           : 24.52 MB
CPU time              : 0.487539 s

UNSATISFIABLE
